\ LP format - for model browsing. Use MPS format to capture full model detail.
Maximize
  2 x_1 + 9 x_2 + 4 x_3 + 9 x_4 + 4 x_5
Subject To
 C_1: x_1 + 3 x_2 + 4 x_4 + 2 x_5 <= 5
 C_2: 3 x_1 + 6 x_2 + 4 x_3 + 3 x_4 + 4 x_5 <= 10
 C_3: 4 x_2 + 10 x_3 + 5 x_4 <= 9
 C_4: 8 x_1 + 3 x_4 <= 5
 C_5: 10 x_1 + 7 x_4 <= 8
 C_6: 6 x_1 + 8 x_2 + 9 x_3 + 3 x_5 <= 13
 C_7: 10 x_5 <= 5
 C_8: <= 0
 C_9: 10 x_1 + 10 x_5 <= 10
 C_10: 9 x_1 + 4 x_5 <= 6
Bounds
Binaries
 x_1 x_2 x_3 x_4 x_5
End
